32 1000
117 7
44 74
655 77
205 74
129 64
865 1
144 59
480 18
841 91
7 36
784 1
230 64
76 22
489 4
238 52
254 28
61 78
292 74
897 58
757 5
131 93
136 44
664 87
632 68
385 97
345 45
342 13
289 40
190 44
263 12
555 25
440 7
